c Random generated cnf formula, satisfiable: false
p cnf 10 50
-10 2 8 0
-10 -9 6 0
5 1 -3 0
-7 -5 -10 0
10 5 -3 0
2 8 -6 0
7 -2 4 0
9 7 1 0
-3 -5 -8 0
8 -9 -6 0
9 -10 8 0
-5 2 -3 0
-6 7 4 0
-2 -10 -5 0
-6 8 -1 0
7 -6 1 0
5 -4 7 0
8 -1 -7 0
-10 -6 4 0
-2 10 5 0
8 4 7 0
4 -10 5 0
-6 -3 10 0
2 5 4 0
4 -1 -7 0
-9 -10 -1 0
9 3 4 0
2 7 1 0
4 2 5 0
-4 2 6 0
-7 2 -3 0
10 6 -2 0
-8 6 -1 0
9 -5 -6 0
2 -5 3 0
4 -8 5 0
2 -3 6 0
10 7 -4 0
-8 -2 -10 0
-10 2 -3 0
10 7 2 0
5 -7 -8 0
-8 3 10 0
5 -6 1 0
-5 6 10 0
6 1 -7 0
8 -4 6 0
-3 -4 -6 0
-3 -5 9 0
-10 3 1 0
